\ This file has been generated by DOcplex
\ ENCODING=ISO-8859-1
\Problem name: dectiger problem

Maximize
 obj: [ 5.913745248267 a0_u0*a1_u0_x0 - 94.459170550781 a0_u0*a1_u1_x0
      + 15.540829449219 a0_u0*a1_u2_x0 + 37.477031250000 a0_u0*a1_u0_x1
      + 45 a0_u0*a1_u1_x1 - 65 a0_u0*a1_u2_x1 - 94.459170550781 a0_u1*a1_u0_x0
      - 43.459170550781 a0_u1*a1_u1_x0 - 93.459170550781 a0_u1*a1_u2_x0
      + 45 a0_u1*a1_u0_x1 + 56 a0_u1*a1_u1_x1 - 64 a0_u1*a1_u2_x1
      + 15.540829449219 a0_u2*a1_u0_x0 - 93.459170550781 a0_u2*a1_u1_x0
      + 26.540829449219 a0_u2*a1_u2_x0 - 65 a0_u2*a1_u0_x1 - 64 a0_u2*a1_u1_x1
      - 14 a0_u2*a1_u2_x1 ]/2
Subject To
 c1: - 47.401888664087 aj_u0_x0 - 129.992918792969 aj_u1_x0
     - 97.992918792969 aj_u2_x0 - 104.992918792969 aj_u3_x0
     - 38.992918792969 aj_u4_x0 - 46.992918792969 aj_u5_x0
     - 18.992918792969 aj_u6_x0 - 121.992918792969 aj_u7_x0
     - 78.992918792969 aj_u8_x0 + 47.401888664087 a0_u0 + 104.992918792969 a0_u1
     + 18.992918792969 a0_u2 >= 0
 c2: - 47.401888664087 aj_u0_x0 - 129.992918792969 aj_u1_x0
     - 97.992918792969 aj_u2_x0 - 104.992918792969 aj_u3_x0
     - 38.992918792969 aj_u4_x0 - 46.992918792969 aj_u5_x0
     - 18.992918792969 aj_u6_x0 - 121.992918792969 aj_u7_x0
     - 78.992918792969 aj_u8_x0 + 129.992918792969 a0_u0 + 38.992918792969 a0_u1
     + 121.992918792969 a0_u2 >= 0
 c3: - 47.401888664087 aj_u0_x0 - 129.992918792969 aj_u1_x0
     - 97.992918792969 aj_u2_x0 - 104.992918792969 aj_u3_x0
     - 38.992918792969 aj_u4_x0 - 46.992918792969 aj_u5_x0
     - 18.992918792969 aj_u6_x0 - 121.992918792969 aj_u7_x0
     - 78.992918792969 aj_u8_x0 + 97.992918792969 a0_u0 + 46.992918792969 a0_u1
     + 78.992918792969 a0_u2 >= 0
 c4: - 140.603593750000 aj_u0_x1 - 35 aj_u1_x1 - 98 aj_u2_x1 - 112 aj_u3_x1
     - 116 aj_u4_x1 - 35 aj_u5_x1 - 60 aj_u6_x1 - 54 aj_u7_x1 - 125 aj_u8_x1
     + 140.603593750000 a0_u0 + 112 a0_u1 + 60 a0_u2 >= 0
 c5: - 140.603593750000 aj_u0_x1 - 35 aj_u1_x1 - 98 aj_u2_x1 - 112 aj_u3_x1
     - 116 aj_u4_x1 - 35 aj_u5_x1 - 60 aj_u6_x1 - 54 aj_u7_x1 - 125 aj_u8_x1
     + 35 a0_u0 + 116 a0_u1 + 54 a0_u2 >= 0
 c6: - 140.603593750000 aj_u0_x1 - 35 aj_u1_x1 - 98 aj_u2_x1 - 112 aj_u3_x1
     - 116 aj_u4_x1 - 35 aj_u5_x1 - 60 aj_u6_x1 - 54 aj_u7_x1 - 125 aj_u8_x1
     + 98 a0_u0 + 35 a0_u1 + 125 a0_u2 >= 0
 c7: a0_u0 + a0_u1 + a0_u2 = 1
 c8: a1_u0_x0 + a1_u1_x0 + a1_u2_x0 = 1
 c9: aj_u0_x0 + aj_u1_x0 + aj_u2_x0 + aj_u3_x0 + aj_u4_x0 + aj_u5_x0 + aj_u6_x0
     + aj_u7_x0 + aj_u8_x0 = 1
 c10: a1_u0_x1 + a1_u1_x1 + a1_u2_x1 = 1
 c11: aj_u0_x1 + aj_u1_x1 + aj_u2_x1 + aj_u3_x1 + aj_u4_x1 + aj_u5_x1 + aj_u6_x1
      + aj_u7_x1 + aj_u8_x1 = 1
 c12: aj_u0_x0 + aj_u1_x0 + aj_u2_x0 - a0_u0 = 0
 c13: aj_u3_x0 + aj_u4_x0 + aj_u5_x0 - a0_u1 = 0
 c14: aj_u6_x0 + aj_u7_x0 + aj_u8_x0 - a0_u2 = 0
 c15: aj_u0_x1 + aj_u1_x1 + aj_u2_x1 - a0_u0 = 0
 c16: aj_u3_x1 + aj_u4_x1 + aj_u5_x1 - a0_u1 = 0
 c17: aj_u6_x1 + aj_u7_x1 + aj_u8_x1 - a0_u2 = 0
 c18: aj_u0_x0 + aj_u3_x0 + aj_u6_x0 - a1_u0_x0 = 0
 c19: aj_u1_x0 + aj_u4_x0 + aj_u7_x0 - a1_u1_x0 = 0
 c20: aj_u2_x0 + aj_u5_x0 + aj_u8_x0 - a1_u2_x0 = 0
 c21: aj_u0_x1 + aj_u3_x1 + aj_u6_x1 - a1_u0_x1 = 0
 c22: aj_u1_x1 + aj_u4_x1 + aj_u7_x1 - a1_u1_x1 = 0
 c23: aj_u2_x1 + aj_u5_x1 + aj_u8_x1 - a1_u2_x1 = 0

Bounds
       a0_u0 <= 1
       a0_u1 <= 1
       a0_u2 <= 1
 0 <= a1_u0_x0 <= 1
 0 <= a1_u1_x0 <= 1
 0 <= a1_u2_x0 <= 1
       aj_u0_x0 <= 1
       aj_u1_x0 <= 1
       aj_u2_x0 <= 1
       aj_u3_x0 <= 1
       aj_u4_x0 <= 1
       aj_u5_x0 <= 1
       aj_u6_x0 <= 1
       aj_u7_x0 <= 1
       aj_u8_x0 <= 1
 0 <= a1_u0_x1 <= 1
 0 <= a1_u1_x1 <= 1
 0 <= a1_u2_x1 <= 1
       aj_u0_x1 <= 1
       aj_u1_x1 <= 1
       aj_u2_x1 <= 1
       aj_u3_x1 <= 1
       aj_u4_x1 <= 1
       aj_u5_x1 <= 1
       aj_u6_x1 <= 1
       aj_u7_x1 <= 1
       aj_u8_x1 <= 1

Binaries
 a1_u0_x0 a1_u1_x0 a1_u2_x0 a1_u0_x1 a1_u1_x1 a1_u2_x1
End
